
Gurobi 9.0.1 (linux64) logging started Thu Apr 30 05:57:52 2020

Gurobi Optimizer version 9.0.1 build v9.0.1rc0 (linux64)
Optimize a model with 872 rows, 990 columns and 6936 nonzeros
Model fingerprint: 0xe97aab64
Variable types: 0 continuous, 990 integer (980 binary)
Coefficient statistics:
  Matrix range     [1e+00, 5e+00]
  Objective range  [1e+01, 1e+02]
  Bounds range     [1e+00, 1e+00]
  RHS range        [1e+00, 1e+00]

User MIP start produced solution with objective 568 (0.00s)
Loaded user MIP start with objective 568

Presolve removed 208 rows and 360 columns
Presolve time: 0.06s
Presolved: 664 rows, 630 columns, 4902 nonzeros
Variable types: 0 continuous, 630 integer (622 binary)

Root relaxation: objective 4.104056e+02, 541 iterations, 0.03 seconds

    Nodes    |    Current Node    |     Objective Bounds      |     Work
 Expl Unexpl |  Obj  Depth IntInf | Incumbent    BestBd   Gap | It/Node Time

     0     0  410.40558    0  252  568.00000  410.40558  27.7%     -    0s
     0     0  419.86751    0  295  568.00000  419.86751  26.1%     -    0s
     0     0  420.25888    0  288  568.00000  420.25888  26.0%     -    0s
     0     0  420.25896    0  293  568.00000  420.25896  26.0%     -    0s
     0     0  423.31197    0  275  568.00000  423.31197  25.5%     -    0s
     0     0  424.11294    0  284  568.00000  424.11294  25.3%     -    0s
     0     0  424.26633    0  282  568.00000  424.26633  25.3%     -    0s
     0     0  424.27413    0  279  568.00000  424.27413  25.3%     -    0s
     0     0  424.27428    0  282  568.00000  424.27428  25.3%     -    0s
     0     0  429.27602    0  303  568.00000  429.27602  24.4%     -    0s
     0     0  429.70323    0  298  568.00000  429.70323  24.3%     -    0s
     0     0  429.75990    0  302  568.00000  429.75990  24.3%     -    0s
     0     0  429.76871    0  298  568.00000  429.76871  24.3%     -    0s
     0     0  432.81437    0  302  568.00000  432.81437  23.8%     -    1s
     0     0  433.04017    0  316  568.00000  433.04017  23.8%     -    1s
     0     0  433.07511    0  315  568.00000  433.07511  23.8%     -    1s
     0     0  433.08032    0  314  568.00000  433.08032  23.8%     -    1s
     0     0  433.83818    0  308  568.00000  433.83818  23.6%     -    1s
     0     0  434.01058    0  317  568.00000  434.01058  23.6%     -    1s
     0     0  434.04673    0  311  568.00000  434.04673  23.6%     -    1s
     0     0  434.04702    0  311  568.00000  434.04702  23.6%     -    1s
     0     0  434.71196    0  310  568.00000  434.71196  23.5%     -    1s
     0     0  434.84724    0  312  568.00000  434.84724  23.4%     -    1s
     0     0  434.87051    0  314  568.00000  434.87051  23.4%     -    1s
     0     0  434.87215    0  314  568.00000  434.87215  23.4%     -    1s
     0     0  435.63429    0  303  568.00000  435.63429  23.3%     -    1s
     0     0  435.67770    0  303  568.00000  435.67770  23.3%     -    1s
     0     0  435.68087    0  304  568.00000  435.68087  23.3%     -    1s
     0     0  436.18003    0  291  568.00000  436.18003  23.2%     -    1s
     0     0  436.28649    0  302  568.00000  436.28649  23.2%     -    1s
     0     0  436.29118    0  301  568.00000  436.29118  23.2%     -    1s
     0     0  436.39016    0  303  568.00000  436.39016  23.2%     -    1s
     0     0  436.41831    0  307  568.00000  436.41831  23.2%     -    1s
     0     0  436.42597    0  308  568.00000  436.42597  23.2%     -    1s
     0     0  436.79570    0  303  568.00000  436.79570  23.1%     -    1s
     0     0  436.84846    0  305  568.00000  436.84846  23.1%     -    1s
     0     0  436.86045    0  304  568.00000  436.86045  23.1%     -    1s
     0     0  437.43719    0  307  568.00000  437.43719  23.0%     -    1s
     0     0  437.46613    0  307  568.00000  437.46613  23.0%     -    1s
     0     0  437.47056    0  307  568.00000  437.47056  23.0%     -    1s
     0     0  438.82197    0  311  568.00000  438.82197  22.7%     -    1s
     0     0  439.09188    0  315  568.00000  439.09188  22.7%     -    1s
     0     0  439.16207    0  316  568.00000  439.16207  22.7%     -    1s
     0     0  439.17387    0  316  568.00000  439.17387  22.7%     -    1s
     0     0  439.55135    0  314  568.00000  439.55135  22.6%     -    1s
H    0     0                     555.0000000  439.55135  20.8%     -    1s
     0     0  439.56607    0  317  555.00000  439.56607  20.8%     -    1s
     0     0  439.58045    0  317  555.00000  439.58045  20.8%     -    1s
     0     0  439.58045    0  317  555.00000  439.58045  20.8%     -    1s
     0     0  439.70735    0  265  555.00000  439.70735  20.8%     -    2s
     0     0  439.70735    0  300  555.00000  439.70735  20.8%     -    2s
     0     0  439.70735    0  301  555.00000  439.70735  20.8%     -    2s
     0     0  439.70735    0  299  555.00000  439.70735  20.8%     -    2s
     0     0  439.70735    0  299  555.00000  439.70735  20.8%     -    2s
     0     0  439.70735    0  301  555.00000  439.70735  20.8%     -    2s
     0     0  439.70735    0  302  555.00000  439.70735  20.8%     -    2s
     0     0  440.55516    0  312  555.00000  440.55516  20.6%     -    2s
     0     0  441.10456    0  317  555.00000  441.10456  20.5%     -    2s
     0     0  441.19153    0  313  555.00000  441.19153  20.5%     -    2s
     0     0  441.21087    0  316  555.00000  441.21087  20.5%     -    2s
     0     0  442.25046    0  313  555.00000  442.25046  20.3%     -    2s
     0     0  442.59644    0  318  555.00000  442.59644  20.3%     -    2s
     0     0  442.67258    0  315  555.00000  442.67258  20.2%     -    2s
     0     0  442.68484    0  318  555.00000  442.68484  20.2%     -    2s
     0     0  442.80507    0  317  555.00000  442.80507  20.2%     -    3s
     0     0  442.81035    0  317  555.00000  442.81035  20.2%     -    3s
     0     0  442.87965    0  318  555.00000  442.87965  20.2%     -    3s
     0     0  442.87965    0  318  555.00000  442.87965  20.2%     -    3s
     0     2  442.95205    0  318  555.00000  442.95205  20.2%     -    3s
H   72    56                     536.0000000  453.20972  15.4%   169    4s
    94    79  520.27284   24  114  536.00000  453.20972  15.4%   168    5s
*  119    88              37     533.0000000  453.20972  15.0%   142    5s
H  137    63                     512.0000000  454.75692  11.2%   135    5s
H  218    82                     502.0000000  456.41018  9.08%   119    6s
   579   124  494.56558    6  166  502.00000  481.47306  4.09%   103   10s
*  626   104              14     498.0000000  482.33289  3.15%   101   10s

Cutting planes:
  Gomory: 1
  Cover: 1
  MIR: 23
  Zero half: 30
  RLT: 224

Explored 953 nodes (89023 simplex iterations) in 13.27 seconds
Thread count was 1 (of 40 available processors)

Solution count 7: 498 502 512 ... 568

Optimal solution found (tolerance 1.00e-04)
Best objective 4.980000000000e+02, best bound 4.980000000000e+02, gap 0.0000%

User-callback calls 4888, time in user-callback 0.00 sec
